(set-info :Origin "This instance was generated by: BanditFuzz-- an RL fuzzer for SMT solvers" )
(set-info :Author "Joe Scott, Fed Mora, Vijay Ganesh" )
(set-info :Contact "Joe Scott, joseph.scott@uwaterloo.ca")
(set-logic QF_BV)
(declare-const bool_0 Bool)
(declare-const bool_1 Bool)
(declare-const bool_2 Bool)
(declare-const bool_3 Bool)
(declare-const bool_4 Bool)
(declare-const bv_0 (_ BitVec 32))
(declare-const bv_1 (_ BitVec 32))
(declare-const bv_2 (_ BitVec 32))
(declare-const bv_3 (_ BitVec 32))
(declare-const bv_4 (_ BitVec 32))
(assert (not (bvugt (bvor bv_2 bv_1) (bvashr #x15471d7d  #xf20da37a ))))
(assert (bvslt (bvurem (bvshl bv_0 #xae407dfa ) (bvlshr bv_3 bv_4)) (bvurem (bvudiv #xef528f40  #xae825e96 ) (bvsmod bv_3 #xa60aae70 ))))
(assert (bvult (bvsdiv (bvmul bv_1 #xf217f51f ) (bvnand #x104b06ce  bv_3)) (bvashr (bvudiv bv_1 bv_2) (bvsrem #x8803d50c  #x9a8262ad ))))
(assert (bvule (bvudiv (bvashr #x12361b25  #xf86177ad ) (bvand bv_1 #x1983a11c )) (bvand (bvnand #xa4b7382b  bv_2) (bvadd bv_4 #x5afa9dd5 ))))
(assert (and (bvugt (bvudiv #x47b28a39  bv_1) (bvxnor #xf40a0fad  #xd35e8a83 )) (not (=> true false))))
(check-sat)
(exit)
